$molecule
 0 1 
C	-6.2167958009	-0.5388526622	0.7386775327	
C	-5.2171170882	-0.1773489771	-0.3488024981	
C	-3.7741764932	-0.1492434056	0.1383580386	
C	-2.7660654353	0.1943646744	-0.9592468204	
C	-1.3378929536	0.2051316272	-0.4819020695	
C	-0.6539402853	-0.9930630567	-0.2367111294	
H	-1.1573011121	-1.9471011004	-0.4222078838	
C	0.6539510312	-0.9930675911	0.2366625879	
H	1.1573201536	-1.9471092973	0.4221179373	
C	1.3378930057	0.2051226024	0.4819057351	
C	0.6568536380	1.4002534744	0.2343824675	
H	1.1625127451	2.3536925602	0.4153484716	
C	-0.6568641563	1.4002578863	-0.2343272791	
H	-1.1625316289	2.3537003375	-0.4152521956	
H	-7.2485430330	-0.5482472323	0.3550254958	
H	-6.1795060363	0.1804271245	1.5728998992	
H	-6.0093525589	-1.5369227483	1.1574323892	
H	-5.4751340057	0.8076404488	-0.7771644368	
H	-5.3022490047	-0.8956609681	-1.1839423414	
H	-3.5135028166	-1.1298624598	0.5753372077	
H	-3.6736402711	0.5791922949	0.9626298023	
H	-3.0167709582	1.1792712233	-1.3874958061	
H	-2.8706538003	-0.5341831062	-1.7825823586	
H	3.0167664644	1.1792463318	1.3875236332	
C	2.7660643608	0.1943479469	0.9592538939	
H	2.8706511656	-0.5342159221	1.7825755635	
C	3.7741803035	-0.1492370603	-0.1383535367	
C	5.2171189225	-0.1773475955	0.3488125726	
C	6.2168031934	-0.5388340044	-0.7386679911	
H	3.6736453905	0.5792132728	-0.9626125237	
H	3.5135115699	-1.1298490814	-0.5753514935	
H	5.3022481112	-0.8956715957	1.1839423918	
H	5.4751324883	0.8076359613	0.7771900123	
H	6.0093639117	-1.5368985513	-1.1574380735	
H	7.2485486273	-0.5482322407	-0.3550111847	
H	6.1795163021	0.1804574936	-1.5728804116	
$end
$rem
	METHOD 		SRC1-R1
	BASIS		def2-SVP
	CIS_N_ROOTS	200
	CIS_TRIPLETS 	FALSE
	TRNSS 		TRUE
	TRTYPE		3
! Active sapce configuration. 
	! There are 14 carbons
	N_SOL		14 
	! There are 253 virtual orbitals in total
$end
$solute
1
2
3
4
5
6
7
8
9
10
11
12
13
14
$end
